71
58
57
56
43
42
41
40
53
54
55
69
70
82
83
84
85
72
73
74
75
76
77
78
65
64
63
62
61
60
59
45
44
30
29
28
27
14
15
16
17
18
19
6
5
4
3
2
1
31
32
33
34
21
20
7
8
9
10
11
12
13
25
24
23
22
35
36
37
50
51
52
39
38
26
48
47
46
49
89
88
87
86
99
98
97
96
95
94
93
92
105
106
107
108
109
110
111
112
113
114
127
126
125
124
123
122
121
120
119
118
131
132
133
134
147
148
149
150
151
152
153
166
165
164
163
162
161
160
159
172
171
170
157
158
146
145
144
135
136
137
138
139
140
141
154
155
156
143
142
128
129
130
117
116
115
101
100
102
103
104
91
90
81
80
79
66
67
68
173
174
175
176
177
178
179
180
167
168
169
181
182
195
194
193
192
191
190
189
188
187
186
185
184
183
71
